DIMACS_lns/graph-1000-473.col
p edge 1000 1845
e 1 692
e 1 256
e 1 343
e 1 282
e 2 134
e 2 143
e 2 934
e 2 910
e 3 173
e 3 615
e 3 467
e 3 728
e 3 90
e 3 167
e 4 811
e 4 797
e 4 397
e 4 110
e 4 818
e 5 292
e 5 46
e 5 91
e 5 915
e 5 283
e 5 415
e 6 642
e 6 374
e 6 887
e 7 305
e 7 472
e 7 678
e 7 274
e 7 844
e 7 812
e 7 637
e 7 934
e 8 499
e 8 664
e 8 636
e 8 593
e 8 80
e 10 965
e 10 796
e 10 733
e 10 135
e 11 766
e 11 101
e 11 460
e 11 908
e 11 909
e 11 121
e 11 286
e 12 268
e 12 567
e 12 819
e 13 47
e 13 721
e 13 24
e 13 315
e 13 88
e 14 22
e 14 661
e 14 172
e 14 666
e 14 173
e 15 579
e 15 722
e 15 683
e 15 320
e 16 561
e 16 232
e 16 663
e 18 358
e 18 989
e 18 618
e 18 516
e 18 928
e 18 485
e 18 182
e 18 208
e 19 238
e 19 307
e 19 698
e 20 645
e 20 243
e 20 808
e 20 299
e 20 653
e 20 616
e 21 99
e 21 396
e 21 436
e 21 28
e 21 536
e 21 73
e 21 684
e 21 729
e 22 268
e 22 969
e 22 341
e 22 548
e 23 512
e 23 814
e 23 138
e 23 277
e 23 705
e 24 171
e 24 657
e 24 311
e 25 285
e 25 208
e 25 789
e 25 508
e 25 403
e 25 600
e 25 553
e 25 712
e 26 928
e 26 270
e 26 667
e 26 441
e 27 41
e 27 214
e 27 586
e 27 638
e 27 850
e 27 533
e 28 433
e 28 179
e 28 593
e 28 522
e 28 946
e 29 308
e 29 173
e 29 190
e 29 850
e 33 250
e 33 638
e 33 518
e 33 246
e 35 528
e 35 117
e 35 180
e 35 919
e 36 838
e 36 730
e 36 459
e 36 574
e 36 979
e 36 116
e 36 835
e 36 291
e 36 859
e 39 366
e 39 604
e 39 961
e 39 965
e 40 783
e 40 714
e 40 287
e 40 84
e 40 883
e 40 563
e 41 354
e 41 72
e 41 625
e 42 842
e 42 182
e 42 206
e 42 602
e 42 745
e 42 815
e 42 894
e 44 254
e 44 619
e 44 880
e 46 440
e 46 562
e 46 971
e 47 392
e 47 614
e 47 958
e 48 454
e 48 808
e 48 675
e 48 590
e 48 346
e 50 195
e 50 481
e 50 317
e 51 150
e 51 556
e 51 863
e 51 883
e 51 66
e 51 221
e 52 92
e 52 232
e 52 721
e 52 803
e 52 178
e 53 444
e 53 407
e 53 250
e 53 133
e 56 863
e 56 608
e 56 753
e 57 152
e 57 125
e 57 846
e 57 297
e 59 950
e 59 715
e 59 257
e 61 925
e 61 883
e 61 592
e 63 854
e 63 359
e 63 491
e 63 675
e 64 94
e 64 666
e 64 394
e 64 506
e 65 316
e 65 246
e 65 387
e 65 432
e 65 732
e 65 560
e 66 539
e 66 978
e 66 674
e 66 964
e 66 219
e 66 619
e 67 963
e 67 242
e 67 671
e 67 187
e 67 162
e 67 147
e 67 192
e 70 618
e 70 273
e 70 188
e 71 553
e 71 391
e 71 285
e 71 884
e 72 553
e 72 938
e 72 681
e 72 320
e 72 533
e 73 759
e 73 473
e 73 219
e 74 675
e 74 189
e 74 761
e 75 894
e 75 117
e 75 289
e 76 181
e 76 806
e 76 980
e 76 325
e 76 452
e 76 611
e 76 692
e 76 310
e 76 292
e 79 227
e 79 479
e 79 776
e 79 688
e 80 841
e 80 546
e 80 471
e 80 518
e 80 463
e 82 467
e 82 244
e 82 349
e 82 636
e 82 98
e 82 268
e 82 984
e 82 522
e 83 469
e 83 889
e 83 351
e 84 642
e 84 792
e 84 138
e 84 133
e 85 558
e 85 744
e 85 332
e 85 897
e 85 348
e 87 652
e 87 313
e 87 454
e 87 419
e 88 260
e 88 522
e 88 292
e 88 133
e 88 504
e 89 465
e 89 432
e 89 523
e 89 203
e 89 100
e 90 780
e 90 903
e 90 287
e 91 708
e 91 249
e 91 826
e 91 147
e 91 254
e 91 391
e 92 666
e 92 611
e 92 425
e 92 736
e 94 298
e 94 232
e 94 732
e 94 861
e 94 155
e 95 909
e 95 206
e 95 596
e 97 581
e 97 346
e 97 370
e 98 829
e 98 321
e 98 549
e 98 592
e 99 661
e 99 403
e 99 487
e 100 714
e 100 622
e 100 658
e 100 883
e 100 744
e 101 434
e 101 641
e 101 602
e 101 914
e 101 937
e 102 984
e 102 216
e 102 303
e 103 432
e 103 219
e 103 199
e 103 353
e 103 589
e 103 173
e 103 748
e 104 323
e 104 336
e 104 667
e 104 863
e 105 364
e 105 418
e 105 431
e 105 1000
e 105 622
e 105 457
e 105 393
e 106 775
e 106 930
e 106 887
e 107 261
e 107 950
e 107 652
e 108 932
e 108 728
e 108 357
e 108 344
e 110 657
e 110 123
e 110 304
e 110 468
e 110 603
e 110 608
e 114 354
e 114 714
e 114 914
e 115 835
e 115 195
e 115 722
e 116 351
e 116 401
e 117 190
e 117 754
e 117 353
e 117 486
e 119 420
e 119 973
e 119 628
e 119 196
e 119 748
e 120 975
e 120 226
e 120 829
e 121 830
e 121 210
e 121 821
e 121 904
e 122 446
e 122 650
e 122 769
e 122 348
e 122 330
e 123 134
e 123 332
e 125 916
e 125 721
e 126 770
e 126 382
e 126 787
e 126 149
e 126 817
e 127 199
e 127 540
e 127 925
e 130 324
e 130 616
e 130 854
e 131 674
e 131 793
e 131 651
e 131 844
e 131 542
e 131 849
e 131 309
e 131 155
e 133 353
e 134 484
e 134 352
e 134 781
e 135 285
e 135 147
e 135 499
e 135 949
e 135 511
e 135 888
e 135 962
e 137 401
e 137 160
e 137 544
e 137 358
e 137 721
e 138 852
e 138 591
e 138 996
e 138 194
e 138 310
e 138 902
e 140 957
e 140 318
e 140 654
e 142 737
e 142 406
e 142 405
e 143 470
e 143 349
e 143 775
e 143 681
e 143 520
e 144 684
e 144 898
e 144 718
e 144 536
e 146 287
e 146 716
e 146 793
e 146 589
e 146 442
e 147 540
e 147 165
e 147 593
e 147 854
e 147 803
e 149 753
e 149 663
e 150 369
e 150 719
e 150 860
e 151 548
e 151 287
e 151 352
e 152 883
e 152 225
e 152 302
e 152 374
e 152 163
e 152 213
e 152 541
e 152 634
e 154 659
e 154 851
e 154 889
e 155 989
e 155 340
e 156 729
e 156 683
e 156 268
e 156 246
e 156 662
e 156 765
e 156 484
e 158 984
e 158 795
e 158 445
e 158 307
e 159 876
e 159 769
e 159 268
e 159 611
e 160 556
e 160 459
e 160 889
e 160 914
e 162 971
e 162 469
e 162 402
e 162 542
e 163 768
e 163 934
e 163 398
e 163 652
e 163 466
e 163 573
e 164 623
e 164 741
e 164 391
e 165 914
e 165 350
e 165 651
e 166 274
e 166 373
e 166 754
e 167 219
e 167 932
e 167 534
e 167 810
e 169 847
e 169 734
e 169 222
e 169 941
e 169 201
e 169 730
e 169 410
e 169 345
e 169 962
e 171 776
e 171 370
e 172 188
e 172 754
e 172 684
e 173 860
e 173 932
e 178 289
e 178 264
e 178 623
e 179 672
e 179 910
e 179 731
e 180 396
e 180 638
e 181 822
e 181 335
e 182 470
e 182 591
e 182 847
e 182 343
e 182 595
e 182 791
e 182 192
e 182 766
e 183 364
e 183 832
e 183 522
e 183 938
e 183 977
e 183 390
e 184 697
e 184 464
e 184 206
e 184 653
e 184 265
e 184 832
e 184 461
e 184 437
e 185 770
e 185 502
e 185 958
e 186 363
e 186 789
e 186 562
e 187 810
e 187 332
e 187 726
e 187 591
e 188 949
e 188 359
e 188 758
e 188 314
e 189 694
e 189 889
e 189 496
e 189 851
e 189 857
e 189 515
e 190 828
e 190 562
e 190 232
e 190 534
e 192 551
e 192 641
e 192 391
e 192 310
e 192 515
e 192 880
e 192 211
e 192 320
e 193 258
e 193 412
e 193 801
e 194 659
e 194 477
e 194 464
e 195 278
e 196 839
e 196 941
e 196 822
e 197 734
e 197 914
e 197 769
e 197 745
e 197 879
e 197 988
e 199 325
e 199 340
e 199 847
e 199 822
e 200 768
e 200 464
e 200 710
e 201 934
e 201 786
e 201 832
e 201 454
e 201 344
e 203 390
e 203 301
e 203 923
e 203 711
e 204 857
e 204 904
e 204 215
e 205 816
e 205 996
e 205 520
e 205 563
e 206 272
e 206 869
e 206 454
e 206 500
e 206 591
e 207 599
e 207 260
e 207 479
e 207 473
e 208 274
e 208 258
e 208 431
e 208 311
e 208 835
e 208 260
e 209 809
e 209 687
e 209 316
e 209 983
e 209 989
e 209 590
e 209 837
e 209 321
e 210 775
e 210 369
e 211 641
e 211 405
e 212 546
e 212 326
e 212 561
e 212 222
e 213 996
e 213 833
e 213 354
e 214 589
e 214 787
e 214 497
e 214 752
e 215 997
e 215 740
e 215 403
e 216 618
e 216 496
e 216 384
e 216 920
e 219 338
e 219 722
e 219 796
e 219 753
e 219 915
e 219 415
e 221 551
e 221 369
e 221 776
e 222 350
e 222 741
e 222 830
e 223 647
e 223 400
e 223 773
e 223 520
e 223 227
e 225 373
e 225 347
e 225 269
e 225 652
e 226 723
e 226 246
e 226 685
e 226 615
e 226 659
e 226 857
e 227 445
e 227 792
e 227 402
e 231 920
e 231 599
e 231 836
e 231 761
e 231 262
e 232 676
e 232 560
e 232 937
e 232 548
e 232 775
e 232 725
e 232 855
e 233 606
e 233 440
e 233 511
e 233 863
e 236 698
e 236 930
e 236 370
e 238 777
e 238 266
e 242 378
e 242 990
e 242 352
e 242 626
e 242 929
e 242 780
e 242 611
e 242 893
e 243 300
e 243 380
e 243 486
e 243 498
e 243 648
e 244 279
e 244 709
e 246 487
e 246 368
e 246 648
e 246 442
e 246 335
e 246 910
e 249 508
e 249 368
e 249 397
e 250 818
e 250 436
e 250 891
e 250 301
e 250 857
e 251 973
e 251 828
e 251 512
e 251 650
e 251 419
e 252 481
e 252 687
e 252 579
e 252 391
e 253 617
e 253 964
e 253 691
e 254 363
e 254 830
e 256 894
e 256 699
e 256 751
e 256 394
e 256 581
e 257 1000
e 257 318
e 257 960
e 257 279
e 257 861
e 258 315
e 258 379
e 258 592
e 258 602
e 260 268
e 260 628
e 260 515
e 261 460
e 261 597
e 261 540
e 261 293
e 261 778
e 261 726
e 261 797
e 262 530
e 262 712
e 262 772
e 263 444
e 263 352
e 263 384
e 264 283
e 264 354
e 264 794
e 264 304
e 265 527
e 265 722
e 265 835
e 265 606
e 265 346
e 265 662
e 265 374
e 265 418
e 266 614
e 266 772
e 266 877
e 267 723
e 267 793
e 267 865
e 268 775
e 268 859
e 268 653
e 269 291
e 269 556
e 270 676
e 270 894
e 272 949
e 272 447
e 273 930
e 273 739
e 273 521
e 273 658
e 274 278
e 274 539
e 275 614
e 275 573
e 275 349
e 275 759
e 277 314
e 277 459
e 277 357
e 277 815
e 278 677
e 278 715
e 278 394
e 278 447
e 278 821
e 279 530
e 279 894
e 281 893
e 281 942
e 281 550
e 282 606
e 282 302
e 283 434
e 283 748
e 284 589
e 284 832
e 284 410
e 284 453
e 285 994
e 285 712
e 286 567
e 286 287
e 286 890
e 286 873
e 286 796
e 286 848
e 286 898
e 287 772
e 287 970
e 287 661
e 288 517
e 288 848
e 288 798
e 288 602
e 288 846
e 288 468
e 289 396
e 289 324
e 291 682
e 291 653
e 292 637
e 292 416
e 293 303
e 293 571
e 294 947
e 294 821
e 294 372
e 294 763
e 294 430
e 295 682
e 295 663
e 295 493
e 296 391
e 296 723
e 296 369
e 296 449
e 296 586
e 297 981
e 297 622
e 297 324
e 297 617
e 297 678
e 297 454
e 297 531
e 298 328
e 298 581
e 299 945
e 299 354
e 299 329
e 300 728
e 300 901
e 300 487
e 300 369
e 300 482
e 301 351
e 301 520
e 301 911
e 301 856
e 302 941
e 303 619
e 303 646
e 304 469
e 304 839
e 304 539
e 304 502
e 305 321
e 305 379
e 305 533
e 307 400
e 307 573
e 307 392
e 308 867
e 308 500
e 308 690
e 309 807
e 309 623
e 310 627
e 311 962
e 311 396
e 311 480
e 311 344
e 311 800
e 312 587
e 312 928
e 312 635
e 313 521
e 313 393
e 313 455
e 314 523
e 314 946
e 314 463
e 314 316
e 315 703
e 315 333
e 315 890
e 316 821
e 316 372
e 316 440
e 316 527
e 317 652
e 317 759
e 317 497
e 317 543
e 317 925
e 318 571
e 318 445
e 318 629
e 320 877
e 320 604
e 321 828
e 323 817
e 323 768
e 324 452
e 325 353
e 325 902
e 325 466
e 325 613
e 325 838
e 326 425
e 326 556
e 326 359
e 326 543
e 328 412
e 328 647
e 328 358
e 328 698
e 329 554
e 329 860
e 330 341
e 330 949
e 330 480
e 330 719
e 332 402
e 333 613
e 333 662
e 334 836
e 334 553
e 334 447
e 334 963
e 334 625
e 335 786
e 335 1000
e 335 419
e 335 745
e 336 437
e 336 818
e 336 402
e 336 996
e 336 794
e 336 428
e 337 888
e 337 390
e 337 436
e 338 800
e 338 808
e 338 772
e 340 577
e 340 352
e 340 973
e 340 479
e 341 485
e 341 427
e 341 378
e 343 962
e 343 709
e 343 980
e 343 547
e 344 968
e 344 964
e 345 809
e 345 988
e 346 916
e 346 563
e 346 964
e 346 410
e 347 634
e 347 568
e 347 722
e 347 914
e 347 869
e 348 550
e 348 974
e 348 372
e 348 459
e 349 953
e 349 814
e 349 602
e 349 477
e 349 430
e 350 437
e 350 961
e 351 867
e 351 419
e 351 494
e 352 521
e 352 463
e 353 455
e 353 798
e 353 890
e 353 576
e 354 857
e 354 674
e 355 608
e 355 855
e 355 817
e 355 888
e 355 390
e 355 588
e 357 413
e 357 596
e 357 584
e 357 860
e 357 949
e 358 645
e 358 855
e 358 625
e 358 545
e 358 527
e 358 794
e 359 699
e 359 806
e 359 740
e 359 850
e 361 442
e 361 892
e 361 375
e 362 585
e 362 810
e 362 432
e 362 826
e 363 608
e 363 442
e 364 968
e 364 578
e 364 814
e 365 470
e 365 530
e 365 912
e 366 549
e 366 453
e 367 741
e 367 475
e 367 647
e 368 457
e 368 582
e 369 772
e 369 934
e 369 858
e 370 635
e 372 749
e 372 374
e 372 879
e 373 894
e 374 633
e 374 520
e 374 517
e 374 545
e 374 943
e 374 445
e 375 413
e 375 715
e 375 384
e 375 880
e 378 433
e 378 960
e 379 844
e 379 969
e 380 867
e 380 654
e 380 675
e 380 480
e 380 648
e 380 641
e 382 391
e 382 581
e 382 859
e 384 980
e 384 387
e 387 595
e 390 932
e 390 625
e 390 723
e 390 648
e 391 811
e 392 578
e 392 875
e 392 563
e 393 787
e 393 858
e 393 816
e 394 991
e 394 673
e 396 658
e 397 494
e 397 753
e 398 901
e 398 642
e 400 740
e 400 447
e 401 842
e 401 693
e 401 920
e 401 542
e 401 431
e 401 694
e 402 779
e 403 822
e 403 590
e 403 563
e 405 494
e 405 798
e 405 837
e 406 729
e 406 947
e 407 814
e 407 456
e 407 926
e 407 835
e 410 891
e 412 463
e 412 545
e 412 466
e 413 914
e 413 816
e 413 879
e 415 638
e 416 560
e 416 712
e 418 984
e 418 682
e 418 981
e 419 666
e 419 573
e 420 765
e 420 585
e 421 439
e 421 678
e 421 613
e 421 666
e 422 801
e 422 483
e 422 904
e 422 467
e 425 817
e 425 926
e 426 967
e 426 758
e 426 616
e 427 497
e 427 961
e 427 660
e 427 930
e 428 876
e 428 463
e 430 648
e 431 937
e 432 463
e 432 681
e 433 974
e 433 618
e 433 693
e 434 698
e 436 792
e 436 548
e 436 678
e 436 730
e 436 585
e 436 953
e 437 914
e 437 543
e 439 705
e 439 908
e 439 979
e 441 477
e 441 446
e 441 979
e 442 923
e 442 627
e 444 481
e 446 692
e 446 864
e 446 593
e 446 818
e 446 636
e 446 688
e 446 547
e 447 854
e 447 721
e 449 708
e 449 768
e 449 739
e 452 832
e 452 490
e 453 795
e 453 737
e 454 1000
e 455 590
e 455 837
e 456 730
e 456 527
e 457 597
e 457 693
e 457 733
e 457 475
e 457 881
e 459 722
e 459 651
e 459 617
e 460 591
e 461 801
e 461 864
e 464 538
e 464 752
e 464 623
e 465 487
e 465 568
e 466 752
e 466 532
e 466 626
e 467 714
e 467 908
e 467 470
e 467 884
e 467 606
e 467 736
e 467 852
e 468 641
e 468 635
e 469 879
e 470 685
e 470 828
e 470 471
e 470 636
e 471 624
e 471 816
e 472 819
e 472 473
e 473 673
e 473 569
e 473 872
e 473 752
e 473 845
e 475 934
e 475 957
e 476 650
e 476 714
e 476 636
e 477 548
e 477 584
e 480 819
e 481 982
e 481 517
e 482 617
e 482 599
e 482 556
e 483 901
e 483 659
e 484 893
e 484 616
e 484 833
e 485 646
e 486 606
e 486 832
e 486 646
e 486 576
e 486 499
e 486 894
e 486 707
e 487 810
e 490 504
e 490 805
e 490 711
e 491 516
e 491 734
e 491 807
e 493 800
e 493 687
e 493 517
e 493 898
e 493 534
e 494 983
e 494 588
e 494 815
e 494 855
e 496 768
e 496 703
e 496 819
e 497 690
e 497 760
e 497 593
e 498 852
e 498 507
e 499 903
e 499 698
e 500 808
e 500 533
e 500 887
e 500 518
e 500 745
e 500 881
e 500 865
e 502 599
e 502 851
e 502 869
e 504 881
e 506 845
e 506 904
e 506 766
e 507 981
e 507 642
e 507 681
e 508 956
e 508 969
e 511 803
e 511 664
e 511 752
e 511 757
e 512 732
e 515 540
e 516 832
e 516 853
e 517 815
e 517 946
e 517 812
e 518 696
e 518 849
e 520 892
e 522 805
e 522 814
e 522 798
e 523 892
e 526 909
e 526 706
e 526 917
e 526 848
e 527 745
e 528 832
e 528 733
e 530 933
e 530 636
e 530 997
e 530 558
e 530 659
e 531 586
e 531 562
e 532 864
e 532 733
e 532 920
e 532 917
e 533 834
e 536 716
e 536 710
e 536 835
e 538 542
e 538 551
e 539 848
e 540 580
e 540 810
e 541 582
e 541 699
e 542 702
e 542 848
e 543 861
e 543 650
e 544 891
e 544 778
e 544 787
e 544 726
e 546 849
e 546 634
e 546 923
e 547 773
e 548 688
e 548 833
e 548 611
e 549 710
e 549 995
e 550 590
e 551 735
e 553 837
e 553 591
e 554 752
e 554 635
e 556 842
e 558 999
e 560 571
e 560 635
e 560 915
e 560 708
e 561 596
e 561 636
e 561 892
e 562 855
e 562 891
e 566 775
e 566 778
e 566 766
e 566 848
e 567 781
e 567 892
e 568 834
e 568 857
e 569 940
e 569 708
e 571 892
e 573 811
e 573 633
e 573 926
e 574 979
e 574 697
e 574 637
e 574 745
e 576 808
e 577 883
e 577 718
e 577 585
e 577 881
e 578 602
e 578 971
e 579 775
e 579 945
e 580 919
e 580 664
e 580 877
e 581 627
e 581 715
e 581 751
e 581 807
e 581 821
e 581 809
e 582 687
e 582 907
e 582 971
e 584 888
e 584 920
e 586 710
e 586 675
e 587 783
e 587 835
e 587 645
e 587 684
e 587 725
e 587 965
e 587 942
e 588 707
e 588 880
e 589 979
e 589 602
e 589 922
e 590 744
e 590 887
e 590 844
e 591 858
e 591 725
e 591 707
e 591 624
e 591 997
e 592 624
e 592 770
e 595 726
e 595 797
e 596 912
e 596 671
e 597 662
e 600 776
e 600 969
e 602 726
e 602 793
e 602 714
e 603 725
e 603 909
e 603 629
e 603 908
e 604 786
e 606 634
e 606 618
e 613 659
e 613 835
e 613 719
e 613 925
e 615 673
e 618 637
e 618 890
e 618 736
e 619 690
e 619 803
e 619 822
e 623 994
e 623 808
e 624 810
e 624 814
e 625 696
e 626 775
e 627 979
e 627 894
e 627 809
e 627 654
e 628 833
e 628 718
e 628 805
e 629 637
e 633 660
e 634 967
e 634 745
e 635 694
e 636 945
e 636 883
e 637 704
e 638 973
e 638 796
e 641 832
e 641 748
e 641 862
e 642 835
e 642 999
e 645 969
e 645 661
e 646 775
e 646 857
e 647 958
e 647 752
e 650 663
e 650 690
e 650 859
e 654 673
e 654 781
e 657 846
e 658 839
e 658 709
e 660 815
e 660 996
e 660 794
e 660 961
e 660 792
e 660 684
e 660 851
e 661 688
e 661 852
e 663 884
e 664 787
e 664 853
e 665 845
e 665 822
e 665 839
e 665 991
e 666 811
e 667 908
e 667 769
e 667 672
e 671 995
e 671 994
e 672 856
e 672 828
e 673 915
e 674 699
e 675 748
e 676 938
e 677 777
e 677 978
e 677 977
e 681 926
e 681 773
e 682 818
e 682 978
e 682 864
e 683 858
e 683 974
e 683 929
e 684 876
e 685 922
e 685 763
e 688 968
e 688 766
e 690 933
e 691 844
e 691 723
e 691 872
e 692 975
e 696 763
e 697 982
e 698 736
e 698 913
e 699 792
e 699 711
e 702 791
e 702 777
e 703 913
e 704 883
e 704 745
e 704 880
e 705 934
e 705 855
e 706 741
e 706 889
e 707 938
e 712 806
e 712 719
e 714 876
e 714 873
e 715 881
e 715 772
e 716 719
e 718 908
e 718 873
e 719 869
e 719 725
e 721 786
e 722 760
e 722 735
e 723 983
e 723 891
e 723 838
e 725 787
e 726 889
e 728 940
e 729 753
e 731 862
e 731 828
e 734 929
e 734 969
e 735 902
e 735 781
e 735 988
e 736 957
e 736 760
e 737 794
e 739 922
e 739 961
e 740 891
e 740 960
e 741 869
e 745 864
e 748 787
e 749 752
e 749 984
e 751 758
e 753 807
e 753 923
e 754 956
e 754 861
e 757 839
e 757 779
e 761 836
e 763 849
e 764 982
e 764 872
e 764 915
e 765 911
e 765 983
e 768 942
e 768 928
e 768 783
e 770 834
e 776 938
e 776 988
e 777 912
e 777 794
e 778 891
e 779 798
e 780 990
e 786 907
e 786 962
e 789 893
e 791 983
e 791 968
e 794 875
e 795 990
e 796 936
e 798 939
e 800 909
e 803 953
e 805 928
e 806 826
e 807 817
e 807 934
e 808 838
e 808 988
e 808 936
e 811 995
e 811 947
e 812 943
e 821 981
e 821 963
e 822 833
e 828 947
e 829 991
e 829 897
e 832 932
e 832 838
e 835 855
e 835 914
e 835 983
e 839 856
e 841 942
e 841 950
e 848 995
e 853 859
e 857 967
e 858 961
e 860 980
e 862 867
e 862 934
e 862 989
e 865 982
e 873 994
e 875 945
e 880 883
e 888 977
e 888 953
e 889 936
e 890 995
e 892 929
e 893 897
e 894 911
e 898 911
e 898 929
e 903 973
e 903 937
e 907 912
e 911 929
e 913 949
e 913 956
e 914 934
e 916 939
e 917 967
e 919 978
e 925 929
e 928 953
e 929 943
e 933 969
e 939 940
e 942 946
e 946 988
e 963 997
e 965 970
e 970 982
e 973 999
e 975 989
