txt_Ins/graph-1000-473.txt
n 1000
e 0 691
e 0 255
e 0 342
e 0 281
e 1 133
e 1 142
e 1 933
e 1 909
e 2 172
e 2 614
e 2 466
e 2 727
e 2 89
e 2 166
e 3 810
e 3 796
e 3 396
e 3 109
e 3 817
e 4 291
e 4 45
e 4 90
e 4 914
e 4 282
e 4 414
e 5 641
e 5 373
e 5 886
e 6 304
e 6 471
e 6 677
e 6 273
e 6 843
e 6 811
e 6 636
e 6 933
e 7 498
e 7 663
e 7 635
e 7 592
e 7 79
e 9 964
e 9 795
e 9 732
e 9 134
e 10 765
e 10 100
e 10 459
e 10 907
e 10 908
e 10 120
e 10 285
e 11 267
e 11 566
e 11 818
e 12 46
e 12 720
e 12 23
e 12 314
e 12 87
e 13 21
e 13 660
e 13 171
e 13 665
e 13 172
e 14 578
e 14 721
e 14 682
e 14 319
e 15 560
e 15 231
e 15 662
e 17 357
e 17 988
e 17 617
e 17 515
e 17 927
e 17 484
e 17 181
e 17 207
e 18 237
e 18 306
e 18 697
e 19 644
e 19 242
e 19 807
e 19 298
e 19 652
e 19 615
e 20 98
e 20 395
e 20 435
e 20 27
e 20 535
e 20 72
e 20 683
e 20 728
e 21 267
e 21 968
e 21 340
e 21 547
e 22 511
e 22 813
e 22 137
e 22 276
e 22 704
e 23 170
e 23 656
e 23 310
e 24 284
e 24 207
e 24 788
e 24 507
e 24 402
e 24 599
e 24 552
e 24 711
e 25 927
e 25 269
e 25 666
e 25 440
e 26 40
e 26 213
e 26 585
e 26 637
e 26 849
e 26 532
e 27 432
e 27 178
e 27 592
e 27 521
e 27 945
e 28 307
e 28 172
e 28 189
e 28 849
e 32 249
e 32 637
e 32 517
e 32 245
e 34 527
e 34 116
e 34 179
e 34 918
e 35 837
e 35 729
e 35 458
e 35 573
e 35 978
e 35 115
e 35 834
e 35 290
e 35 858
e 38 365
e 38 603
e 38 960
e 38 964
e 39 782
e 39 713
e 39 286
e 39 83
e 39 882
e 39 562
e 40 353
e 40 71
e 40 624
e 41 841
e 41 181
e 41 205
e 41 601
e 41 744
e 41 814
e 41 893
e 43 253
e 43 618
e 43 879
e 45 439
e 45 561
e 45 970
e 46 391
e 46 613
e 46 957
e 47 453
e 47 807
e 47 674
e 47 589
e 47 345
e 49 194
e 49 480
e 49 316
e 50 149
e 50 555
e 50 862
e 50 882
e 50 65
e 50 220
e 51 91
e 51 231
e 51 720
e 51 802
e 51 177
e 52 443
e 52 406
e 52 249
e 52 132
e 55 862
e 55 607
e 55 752
e 56 151
e 56 124
e 56 845
e 56 296
e 58 949
e 58 714
e 58 256
e 60 924
e 60 882
e 60 591
e 62 853
e 62 358
e 62 490
e 62 674
e 63 93
e 63 665
e 63 393
e 63 505
e 64 315
e 64 245
e 64 386
e 64 431
e 64 731
e 64 559
e 65 538
e 65 977
e 65 673
e 65 963
e 65 218
e 65 618
e 66 962
e 66 241
e 66 670
e 66 186
e 66 161
e 66 146
e 66 191
e 69 617
e 69 272
e 69 187
e 70 552
e 70 390
e 70 284
e 70 883
e 71 552
e 71 937
e 71 680
e 71 319
e 71 532
e 72 758
e 72 472
e 72 218
e 73 674
e 73 188
e 73 760
e 74 893
e 74 116
e 74 288
e 75 180
e 75 805
e 75 979
e 75 324
e 75 451
e 75 610
e 75 691
e 75 309
e 75 291
e 78 226
e 78 478
e 78 775
e 78 687
e 79 840
e 79 545
e 79 470
e 79 517
e 79 462
e 81 466
e 81 243
e 81 348
e 81 635
e 81 97
e 81 267
e 81 983
e 81 521
e 82 468
e 82 888
e 82 350
e 83 641
e 83 791
e 83 137
e 83 132
e 84 557
e 84 743
e 84 331
e 84 896
e 84 347
e 86 651
e 86 312
e 86 453
e 86 418
e 87 259
e 87 521
e 87 291
e 87 132
e 87 503
e 88 464
e 88 431
e 88 522
e 88 202
e 88 99
e 89 779
e 89 902
e 89 286
e 90 707
e 90 248
e 90 825
e 90 146
e 90 253
e 90 390
e 91 665
e 91 610
e 91 424
e 91 735
e 93 297
e 93 231
e 93 731
e 93 860
e 93 154
e 94 908
e 94 205
e 94 595
e 96 580
e 96 345
e 96 369
e 97 828
e 97 320
e 97 548
e 97 591
e 98 660
e 98 402
e 98 486
e 99 713
e 99 621
e 99 657
e 99 882
e 99 743
e 100 433
e 100 640
e 100 601
e 100 913
e 100 936
e 101 983
e 101 215
e 101 302
e 102 431
e 102 218
e 102 198
e 102 352
e 102 588
e 102 172
e 102 747
e 103 322
e 103 335
e 103 666
e 103 862
e 104 363
e 104 417
e 104 430
e 104 999
e 104 621
e 104 456
e 104 392
e 105 774
e 105 929
e 105 886
e 106 260
e 106 949
e 106 651
e 107 931
e 107 727
e 107 356
e 107 343
e 109 656
e 109 122
e 109 303
e 109 467
e 109 602
e 109 607
e 113 353
e 113 713
e 113 913
e 114 834
e 114 194
e 114 721
e 115 350
e 115 400
e 116 189
e 116 753
e 116 352
e 116 485
e 118 419
e 118 972
e 118 627
e 118 195
e 118 747
e 119 974
e 119 225
e 119 828
e 120 829
e 120 209
e 120 820
e 120 903
e 121 445
e 121 649
e 121 768
e 121 347
e 121 329
e 122 133
e 122 331
e 124 915
e 124 720
e 125 769
e 125 381
e 125 786
e 125 148
e 125 816
e 126 198
e 126 539
e 126 924
e 129 323
e 129 615
e 129 853
e 130 673
e 130 792
e 130 650
e 130 843
e 130 541
e 130 848
e 130 308
e 130 154
e 132 352
e 133 483
e 133 351
e 133 780
e 134 284
e 134 146
e 134 498
e 134 948
e 134 510
e 134 887
e 134 961
e 136 400
e 136 159
e 136 543
e 136 357
e 136 720
e 137 851
e 137 590
e 137 995
e 137 193
e 137 309
e 137 901
e 139 956
e 139 317
e 139 653
e 141 736
e 141 405
e 141 404
e 142 469
e 142 348
e 142 774
e 142 680
e 142 519
e 143 683
e 143 897
e 143 717
e 143 535
e 145 286
e 145 715
e 145 792
e 145 588
e 145 441
e 146 539
e 146 164
e 146 592
e 146 853
e 146 802
e 148 752
e 148 662
e 149 368
e 149 718
e 149 859
e 150 547
e 150 286
e 150 351
e 151 882
e 151 224
e 151 301
e 151 373
e 151 162
e 151 212
e 151 540
e 151 633
e 153 658
e 153 850
e 153 888
e 154 988
e 154 339
e 155 728
e 155 682
e 155 267
e 155 245
e 155 661
e 155 764
e 155 483
e 157 983
e 157 794
e 157 444
e 157 306
e 158 875
e 158 768
e 158 267
e 158 610
e 159 555
e 159 458
e 159 888
e 159 913
e 161 970
e 161 468
e 161 401
e 161 541
e 162 767
e 162 933
e 162 397
e 162 651
e 162 465
e 162 572
e 163 622
e 163 740
e 163 390
e 164 913
e 164 349
e 164 650
e 165 273
e 165 372
e 165 753
e 166 218
e 166 931
e 166 533
e 166 809
e 168 846
e 168 733
e 168 221
e 168 940
e 168 200
e 168 729
e 168 409
e 168 344
e 168 961
e 170 775
e 170 369
e 171 187
e 171 753
e 171 683
e 172 859
e 172 931
e 177 288
e 177 263
e 177 622
e 178 671
e 178 909
e 178 730
e 179 395
e 179 637
e 180 821
e 180 334
e 181 469
e 181 590
e 181 846
e 181 342
e 181 594
e 181 790
e 181 191
e 181 765
e 182 363
e 182 831
e 182 521
e 182 937
e 182 976
e 182 389
e 183 696
e 183 463
e 183 205
e 183 652
e 183 264
e 183 831
e 183 460
e 183 436
e 184 769
e 184 501
e 184 957
e 185 362
e 185 788
e 185 561
e 186 809
e 186 331
e 186 725
e 186 590
e 187 948
e 187 358
e 187 757
e 187 313
e 188 693
e 188 888
e 188 495
e 188 850
e 188 856
e 188 514
e 189 827
e 189 561
e 189 231
e 189 533
e 191 550
e 191 640
e 191 390
e 191 309
e 191 514
e 191 879
e 191 210
e 191 319
e 192 257
e 192 411
e 192 800
e 193 658
e 193 476
e 193 463
e 194 277
e 195 838
e 195 940
e 195 821
e 196 733
e 196 913
e 196 768
e 196 744
e 196 878
e 196 987
e 198 324
e 198 339
e 198 846
e 198 821
e 199 767
e 199 463
e 199 709
e 200 933
e 200 785
e 200 831
e 200 453
e 200 343
e 202 389
e 202 300
e 202 922
e 202 710
e 203 856
e 203 903
e 203 214
e 204 815
e 204 995
e 204 519
e 204 562
e 205 271
e 205 868
e 205 453
e 205 499
e 205 590
e 206 598
e 206 259
e 206 478
e 206 472
e 207 273
e 207 257
e 207 430
e 207 310
e 207 834
e 207 259
e 208 808
e 208 686
e 208 315
e 208 982
e 208 988
e 208 589
e 208 836
e 208 320
e 209 774
e 209 368
e 210 640
e 210 404
e 211 545
e 211 325
e 211 560
e 211 221
e 212 995
e 212 832
e 212 353
e 213 588
e 213 786
e 213 496
e 213 751
e 214 996
e 214 739
e 214 402
e 215 617
e 215 495
e 215 383
e 215 919
e 218 337
e 218 721
e 218 795
e 218 752
e 218 914
e 218 414
e 220 550
e 220 368
e 220 775
e 221 349
e 221 740
e 221 829
e 222 646
e 222 399
e 222 772
e 222 519
e 222 226
e 224 372
e 224 346
e 224 268
e 224 651
e 225 722
e 225 245
e 225 684
e 225 614
e 225 658
e 225 856
e 226 444
e 226 791
e 226 401
e 230 919
e 230 598
e 230 835
e 230 760
e 230 261
e 231 675
e 231 559
e 231 936
e 231 547
e 231 774
e 231 724
e 231 854
e 232 605
e 232 439
e 232 510
e 232 862
e 235 697
e 235 929
e 235 369
e 237 776
e 237 265
e 241 377
e 241 989
e 241 351
e 241 625
e 241 928
e 241 779
e 241 610
e 241 892
e 242 299
e 242 379
e 242 485
e 242 497
e 242 647
e 243 278
e 243 708
e 245 486
e 245 367
e 245 647
e 245 441
e 245 334
e 245 909
e 248 507
e 248 367
e 248 396
e 249 817
e 249 435
e 249 890
e 249 300
e 249 856
e 250 972
e 250 827
e 250 511
e 250 649
e 250 418
e 251 480
e 251 686
e 251 578
e 251 390
e 252 616
e 252 963
e 252 690
e 253 362
e 253 829
e 255 893
e 255 698
e 255 750
e 255 393
e 255 580
e 256 999
e 256 317
e 256 959
e 256 278
e 256 860
e 257 314
e 257 378
e 257 591
e 257 601
e 259 267
e 259 627
e 259 514
e 260 459
e 260 596
e 260 539
e 260 292
e 260 777
e 260 725
e 260 796
e 261 529
e 261 711
e 261 771
e 262 443
e 262 351
e 262 383
e 263 282
e 263 353
e 263 793
e 263 303
e 264 526
e 264 721
e 264 834
e 264 605
e 264 345
e 264 661
e 264 373
e 264 417
e 265 613
e 265 771
e 265 876
e 266 722
e 266 792
e 266 864
e 267 774
e 267 858
e 267 652
e 268 290
e 268 555
e 269 675
e 269 893
e 271 948
e 271 446
e 272 929
e 272 738
e 272 520
e 272 657
e 273 277
e 273 538
e 274 613
e 274 572
e 274 348
e 274 758
e 276 313
e 276 458
e 276 356
e 276 814
e 277 676
e 277 714
e 277 393
e 277 446
e 277 820
e 278 529
e 278 893
e 280 892
e 280 941
e 280 549
e 281 605
e 281 301
e 282 433
e 282 747
e 283 588
e 283 831
e 283 409
e 283 452
e 284 993
e 284 711
e 285 566
e 285 286
e 285 889
e 285 872
e 285 795
e 285 847
e 285 897
e 286 771
e 286 969
e 286 660
e 287 516
e 287 847
e 287 797
e 287 601
e 287 845
e 287 467
e 288 395
e 288 323
e 290 681
e 290 652
e 291 636
e 291 415
e 292 302
e 292 570
e 293 946
e 293 820
e 293 371
e 293 762
e 293 429
e 294 681
e 294 662
e 294 492
e 295 390
e 295 722
e 295 368
e 295 448
e 295 585
e 296 980
e 296 621
e 296 323
e 296 616
e 296 677
e 296 453
e 296 530
e 297 327
e 297 580
e 298 944
e 298 353
e 298 328
e 299 727
e 299 900
e 299 486
e 299 368
e 299 481
e 300 350
e 300 519
e 300 910
e 300 855
e 301 940
e 302 618
e 302 645
e 303 468
e 303 838
e 303 538
e 303 501
e 304 320
e 304 378
e 304 532
e 306 399
e 306 572
e 306 391
e 307 866
e 307 499
e 307 689
e 308 806
e 308 622
e 309 626
e 310 961
e 310 395
e 310 479
e 310 343
e 310 799
e 311 586
e 311 927
e 311 634
e 312 520
e 312 392
e 312 454
e 313 522
e 313 945
e 313 462
e 313 315
e 314 702
e 314 332
e 314 889
e 315 820
e 315 371
e 315 439
e 315 526
e 316 651
e 316 758
e 316 496
e 316 542
e 316 924
e 317 570
e 317 444
e 317 628
e 319 876
e 319 603
e 320 827
e 322 816
e 322 767
e 323 451
e 324 352
e 324 901
e 324 465
e 324 612
e 324 837
e 325 424
e 325 555
e 325 358
e 325 542
e 327 411
e 327 646
e 327 357
e 327 697
e 328 553
e 328 859
e 329 340
e 329 948
e 329 479
e 329 718
e 331 401
e 332 612
e 332 661
e 333 835
e 333 552
e 333 446
e 333 962
e 333 624
e 334 785
e 334 999
e 334 418
e 334 744
e 335 436
e 335 817
e 335 401
e 335 995
e 335 793
e 335 427
e 336 887
e 336 389
e 336 435
e 337 799
e 337 807
e 337 771
e 339 576
e 339 351
e 339 972
e 339 478
e 340 484
e 340 426
e 340 377
e 342 961
e 342 708
e 342 979
e 342 546
e 343 967
e 343 963
e 344 808
e 344 987
e 345 915
e 345 562
e 345 963
e 345 409
e 346 633
e 346 567
e 346 721
e 346 913
e 346 868
e 347 549
e 347 973
e 347 371
e 347 458
e 348 952
e 348 813
e 348 601
e 348 476
e 348 429
e 349 436
e 349 960
e 350 866
e 350 418
e 350 493
e 351 520
e 351 462
e 352 454
e 352 797
e 352 889
e 352 575
e 353 856
e 353 673
e 354 607
e 354 854
e 354 816
e 354 887
e 354 389
e 354 587
e 356 412
e 356 595
e 356 583
e 356 859
e 356 948
e 357 644
e 357 854
e 357 624
e 357 544
e 357 526
e 357 793
e 358 698
e 358 805
e 358 739
e 358 849
e 360 441
e 360 891
e 360 374
e 361 584
e 361 809
e 361 431
e 361 825
e 362 607
e 362 441
e 363 967
e 363 577
e 363 813
e 364 469
e 364 529
e 364 911
e 365 548
e 365 452
e 366 740
e 366 474
e 366 646
e 367 456
e 367 581
e 368 771
e 368 933
e 368 857
e 369 634
e 371 748
e 371 373
e 371 878
e 372 893
e 373 632
e 373 519
e 373 516
e 373 544
e 373 942
e 373 444
e 374 412
e 374 714
e 374 383
e 374 879
e 377 432
e 377 959
e 378 843
e 378 968
e 379 866
e 379 653
e 379 674
e 379 479
e 379 647
e 379 640
e 381 390
e 381 580
e 381 858
e 383 979
e 383 386
e 386 594
e 389 931
e 389 624
e 389 722
e 389 647
e 390 810
e 391 577
e 391 874
e 391 562
e 392 786
e 392 857
e 392 815
e 393 990
e 393 672
e 395 657
e 396 493
e 396 752
e 397 900
e 397 641
e 399 739
e 399 446
e 400 841
e 400 692
e 400 919
e 400 541
e 400 430
e 400 693
e 401 778
e 402 821
e 402 589
e 402 562
e 404 493
e 404 797
e 404 836
e 405 728
e 405 946
e 406 813
e 406 455
e 406 925
e 406 834
e 409 890
e 411 462
e 411 544
e 411 465
e 412 913
e 412 815
e 412 878
e 414 637
e 415 559
e 415 711
e 417 983
e 417 681
e 417 980
e 418 665
e 418 572
e 419 764
e 419 584
e 420 438
e 420 677
e 420 612
e 420 665
e 421 800
e 421 482
e 421 903
e 421 466
e 424 816
e 424 925
e 425 966
e 425 757
e 425 615
e 426 496
e 426 960
e 426 659
e 426 929
e 427 875
e 427 462
e 429 647
e 430 936
e 431 462
e 431 680
e 432 973
e 432 617
e 432 692
e 433 697
e 435 791
e 435 547
e 435 677
e 435 729
e 435 584
e 435 952
e 436 913
e 436 542
e 438 704
e 438 907
e 438 978
e 440 476
e 440 445
e 440 978
e 441 922
e 441 626
e 443 480
e 445 691
e 445 863
e 445 592
e 445 817
e 445 635
e 445 687
e 445 546
e 446 853
e 446 720
e 448 707
e 448 767
e 448 738
e 451 831
e 451 489
e 452 794
e 452 736
e 453 999
e 454 589
e 454 836
e 455 729
e 455 526
e 456 596
e 456 692
e 456 732
e 456 474
e 456 880
e 458 721
e 458 650
e 458 616
e 459 590
e 460 800
e 460 863
e 463 537
e 463 751
e 463 622
e 464 486
e 464 567
e 465 751
e 465 531
e 465 625
e 466 713
e 466 907
e 466 469
e 466 883
e 466 605
e 466 735
e 466 851
e 467 640
e 467 634
e 468 878
e 469 684
e 469 827
e 469 470
e 469 635
e 470 623
e 470 815
e 471 818
e 471 472
e 472 672
e 472 568
e 472 871
e 472 751
e 472 844
e 474 933
e 474 956
e 475 649
e 475 713
e 475 635
e 476 547
e 476 583
e 479 818
e 480 981
e 480 516
e 481 616
e 481 598
e 481 555
e 482 900
e 482 658
e 483 892
e 483 615
e 483 832
e 484 645
e 485 605
e 485 831
e 485 645
e 485 575
e 485 498
e 485 893
e 485 706
e 486 809
e 489 503
e 489 804
e 489 710
e 490 515
e 490 733
e 490 806
e 492 799
e 492 686
e 492 516
e 492 897
e 492 533
e 493 982
e 493 587
e 493 814
e 493 854
e 495 767
e 495 702
e 495 818
e 496 689
e 496 759
e 496 592
e 497 851
e 497 506
e 498 902
e 498 697
e 499 807
e 499 532
e 499 886
e 499 517
e 499 744
e 499 880
e 499 864
e 501 598
e 501 850
e 501 868
e 503 880
e 505 844
e 505 903
e 505 765
e 506 980
e 506 641
e 506 680
e 507 955
e 507 968
e 510 802
e 510 663
e 510 751
e 510 756
e 511 731
e 514 539
e 515 831
e 515 852
e 516 814
e 516 945
e 516 811
e 517 695
e 517 848
e 519 891
e 521 804
e 521 813
e 521 797
e 522 891
e 525 908
e 525 705
e 525 916
e 525 847
e 526 744
e 527 831
e 527 732
e 529 932
e 529 635
e 529 996
e 529 557
e 529 658
e 530 585
e 530 561
e 531 863
e 531 732
e 531 919
e 531 916
e 532 833
e 535 715
e 535 709
e 535 834
e 537 541
e 537 550
e 538 847
e 539 579
e 539 809
e 540 581
e 540 698
e 541 701
e 541 847
e 542 860
e 542 649
e 543 890
e 543 777
e 543 786
e 543 725
e 545 848
e 545 633
e 545 922
e 546 772
e 547 687
e 547 832
e 547 610
e 548 709
e 548 994
e 549 589
e 550 734
e 552 836
e 552 590
e 553 751
e 553 634
e 555 841
e 557 998
e 559 570
e 559 634
e 559 914
e 559 707
e 560 595
e 560 635
e 560 891
e 561 854
e 561 890
e 565 774
e 565 777
e 565 765
e 565 847
e 566 780
e 566 891
e 567 833
e 567 856
e 568 939
e 568 707
e 570 891
e 572 810
e 572 632
e 572 925
e 573 978
e 573 696
e 573 636
e 573 744
e 575 807
e 576 882
e 576 717
e 576 584
e 576 880
e 577 601
e 577 970
e 578 774
e 578 944
e 579 918
e 579 663
e 579 876
e 580 626
e 580 714
e 580 750
e 580 806
e 580 820
e 580 808
e 581 686
e 581 906
e 581 970
e 583 887
e 583 919
e 585 709
e 585 674
e 586 782
e 586 834
e 586 644
e 586 683
e 586 724
e 586 964
e 586 941
e 587 706
e 587 879
e 588 978
e 588 601
e 588 921
e 589 743
e 589 886
e 589 843
e 590 857
e 590 724
e 590 706
e 590 623
e 590 996
e 591 623
e 591 769
e 594 725
e 594 796
e 595 911
e 595 670
e 596 661
e 599 775
e 599 968
e 601 725
e 601 792
e 601 713
e 602 724
e 602 908
e 602 628
e 602 907
e 603 785
e 605 633
e 605 617
e 612 658
e 612 834
e 612 718
e 612 924
e 614 672
e 617 636
e 617 889
e 617 735
e 618 689
e 618 802
e 618 821
e 622 993
e 622 807
e 623 809
e 623 813
e 624 695
e 625 774
e 626 978
e 626 893
e 626 808
e 626 653
e 627 832
e 627 717
e 627 804
e 628 636
e 632 659
e 633 966
e 633 744
e 634 693
e 635 944
e 635 882
e 636 703
e 637 972
e 637 795
e 640 831
e 640 747
e 640 861
e 641 834
e 641 998
e 644 968
e 644 660
e 645 774
e 645 856
e 646 957
e 646 751
e 649 662
e 649 689
e 649 858
e 653 672
e 653 780
e 656 845
e 657 838
e 657 708
e 659 814
e 659 995
e 659 793
e 659 960
e 659 791
e 659 683
e 659 850
e 660 687
e 660 851
e 662 883
e 663 786
e 663 852
e 664 844
e 664 821
e 664 838
e 664 990
e 665 810
e 666 907
e 666 768
e 666 671
e 670 994
e 670 993
e 671 855
e 671 827
e 672 914
e 673 698
e 674 747
e 675 937
e 676 776
e 676 977
e 676 976
e 680 925
e 680 772
e 681 817
e 681 977
e 681 863
e 682 857
e 682 973
e 682 928
e 683 875
e 684 921
e 684 762
e 687 967
e 687 765
e 689 932
e 690 843
e 690 722
e 690 871
e 691 974
e 695 762
e 696 981
e 697 735
e 697 912
e 698 791
e 698 710
e 701 790
e 701 776
e 702 912
e 703 882
e 703 744
e 703 879
e 704 933
e 704 854
e 705 740
e 705 888
e 706 937
e 711 805
e 711 718
e 713 875
e 713 872
e 714 880
e 714 771
e 715 718
e 717 907
e 717 872
e 718 868
e 718 724
e 720 785
e 721 759
e 721 734
e 722 982
e 722 890
e 722 837
e 724 786
e 725 888
e 727 939
e 728 752
e 730 861
e 730 827
e 733 928
e 733 968
e 734 901
e 734 780
e 734 987
e 735 956
e 735 759
e 736 793
e 738 921
e 738 960
e 739 890
e 739 959
e 740 868
e 744 863
e 747 786
e 748 751
e 748 983
e 750 757
e 752 806
e 752 922
e 753 955
e 753 860
e 756 838
e 756 778
e 760 835
e 762 848
e 763 981
e 763 871
e 763 914
e 764 910
e 764 982
e 767 941
e 767 927
e 767 782
e 769 833
e 775 937
e 775 987
e 776 911
e 776 793
e 777 890
e 778 797
e 779 989
e 785 906
e 785 961
e 788 892
e 790 982
e 790 967
e 793 874
e 794 989
e 795 935
e 797 938
e 799 908
e 802 952
e 804 927
e 805 825
e 806 816
e 806 933
e 807 837
e 807 987
e 807 935
e 810 994
e 810 946
e 811 942
e 820 980
e 820 962
e 821 832
e 827 946
e 828 990
e 828 896
e 831 931
e 831 837
e 834 854
e 834 913
e 834 982
e 838 855
e 840 941
e 840 949
e 847 994
e 852 858
e 856 966
e 857 960
e 859 979
e 861 866
e 861 933
e 861 988
e 864 981
e 872 993
e 874 944
e 879 882
e 887 976
e 887 952
e 888 935
e 889 994
e 891 928
e 892 896
e 893 910
e 897 910
e 897 928
e 902 972
e 902 936
e 906 911
e 910 928
e 912 948
e 912 955
e 913 933
e 915 938
e 916 966
e 918 977
e 924 928
e 927 952
e 928 942
e 932 968
e 938 939
e 941 945
e 945 987
e 962 996
e 964 969
e 969 981
e 972 998
e 974 988
